12 16 9 10
16 16 16 16 16 10 16 7 5 16 12 8 20 12 6 13 
2.71 1.63 4.03 4.41 7.67 3.73 6.15 5.38 4.82 5.19 2.17 4.72 7.41 0.64 0.35 6.69 
6.17 0.6 5.76 3 1.4 3.22 4.63 1.45 2.19 7.08 3.67 6.13 7.44 3.39 5.56 4.65 
2.81 7.08 2.72 5.78 3.13 2.12 2.47 1.85 6.19 1.37 4.95 3.12 7.67 1.73 4.19 5.01 
3.5 4.95 1.96 3.67 5.95 4.61 5.95 7.31 6.62 7.8 5.31 5.17 3.77 0.5 3.88 7.98 
1.16 1.04 6.2 1.55 2.85 4.94 5.85 3.2 7.26 6.32 3.01 5.11 7.78 3.86 4.37 7.3 
0.17 4.55 1.91 2.24 2.06 6.31 1.24 0.07 6.36 6.38 6.45 4.42 1.95 5.35 5.2 6.3 
2.67 6.21 6.74 4.96 5.72 3.87 3.57 4.59 1.16 7.32 0.51 6.8 2.64 2.88 2.78 5.64 
2.39 2.22 6.68 6.48 0.41 0.49 2.11 1.81 4.22 7.2 4.54 7.68 3.99 5.4 3.48 5.52 
5.82 4.96 6.82 4.7 6.4 5.85 1.06 1.82 6.66 6.8 3.79 4.93 2.63 2.05 2.87 0.86 
4 4 4 4 4 4 4 4 4 4 4 4 4 4 4 4 
0.17 0.83 3.46 6.83 6.23 2.26 2.03 3.62 6.29 7.95 0.68 0.84 2.21 6.01 6.64 1.29 
5.2 4.43 1.85 2.54 0.46 1.36 1.65 4.82 3.81 2.02 2.29 3.92 3.92 3.09 3.43 0.75 
1 1 1 1 1 1 1 1 1 1 1 1 1 1 1 1 
1 1 1 1 1 1 1 1 1 1 1 1 1 1 1 1 
1 1 1 1 1 1 1 1 1 1 1 1 1 1 1 1 
1 1 1 1 1 1 1 1 1 1 1 1 1 1 1 1 
1 1 1 1 1 1 1 1 1 1 1 1 1 1 1 1 
1 1 1 1 1 1 1 1 1 1 1 1 1 1 1 1 
1 1 1 1 1 1 1 1 1 1 1 1 1 1 1 1 
1 1 1 1 1 1 1 1 1 1 1 1 1 1 1 1 
1 1 1 1 1 1 1 1 1 1 1 1 1 1 1 1 
1 1 1 1 1 1 1 1 1 1 1 1 1 1 1 1 
1 1 1 1 1 1 1 1 1 1 1 1 1 1 1 1 
1 1 1 1 1 1 1 1 1 1 1 1 1 1 1 1 
0.01 0.01 0.01 0.01 0.01 0.01 0.01 0.01 0.01 0.01 0.01 0.01 0.01 0.01 0.01 0.01 
0.02 0.02 0.02 0.02 0.02 0.02 0.02 0.02 0.02 0.02 0.02 0.02 0.02 0.02 0.02 0.02 
0.03 0.03 0.03 0.03 0.03 0.03 0.03 0.03 0.03 0.03 0.03 0.03 0.03 0.03 0.03 0.03 
0.04 0.04 0.04 0.04 0.04 0.04 0.04 0.04 0.04 0.04 0.04 0.04 0.04 0.04 0.04 0.04 
0.05 0.05 0.05 0.05 0.05 0.05 0.05 0.05 0.05 0.05 0.05 0.05 0.05 0.05 0.05 0.05 
0.06 0.06 0.06 0.06 0.06 0.06 0.06 0.06 0.06 0.06 0.06 0.06 0.06 0.06 0.06 0.06 
0.07 0.07 0.07 0.07 0.07 0.07 0.07 0.07 0.07 0.07 0.07 0.07 0.07 0.07 0.07 0.07 
0.08 0.08 0.08 0.08 0.08 0.08 0.08 0.08 0.08 0.08 0.08 0.08 0.08 0.08 0.08 0.08 
0.09 0.09 0.09 0.09 0.09 0.09 0.09 0.09 0.09 0.09 0.09 0.09 0.09 0.09 0.09 0.09 
0.1 0.1 0.1 0.1 0.1 0.1 0.1 0.1 0.1 0.1 0.1 0.1 0.1 0.1 0.1 0.1 
0.5 0.5 0.5 0.5 0.5 0.5 0.5 0.5 0.5 0.5 0.5 0.5 0.5 0.5 0.5 0.5 
1 1 1 1 1 1 1 1 1 1 1 1 1 1 1 1 
